0 15 16 18 22 23 24 25 26 27 
1 0 2 4 6 7 8 10 11 12 13 14 20 21 30 31 34 35 
2 17 
3 1 3 5 32 33 
4 9 19 28 29 
5 36 

0 22 23 24 25 26 27 
1 5 6 8 10 16 18 
2 29 30 31 32 33 34 35 36 
3 0 1 2 3 4 11 12 13 14 19 21 28 
4 7 9 17 
5 15 20 

